NAME : sim33.62184.tour
COMMENT : Length = 62184
COMMENT : Found by LKH [Keld Helsgaun] Fri Sep 14 14:01:14 2018
TYPE : TOUR
DIMENSION : 33
TOUR_SECTION
1
8
30
13
26
21
11
15
24
9
3
31
10
4
20
14
7
32
27
23
33
22
18
6
12
2
16
29
25
5
19
17
28
-1
EOF
